Gurobi Optimizer version 9.1.2 build v9.1.2rc0 (linux64)
Thread count: 36 physical cores, 72 logical processors, using up to 32 threads
Optimize a model with 12 rows, 57 columns and 590 nonzeros
Model fingerprint: 0xf32eec78
Model has 47 quadratic constraints
Coefficient statistics:
  Matrix range     [2e-05, 3e+00]
  QMatrix range    [1e+00, 1e+00]
  QLMatrix range   [1e+00, 1e+00]
  Objective range  [8e-03, 7e-01]
  Bounds range     [1e+00, 1e+00]
  RHS range        [1e+00, 1e+00]
Presolve removed 9 rows and 0 columns

Continuous model is non-convex -- solving as a MIP.

Presolve removed 9 rows and 0 columns
Presolve time: 0.00s
Presolved: 189 rows, 57 columns, 443 nonzeros
Presolved model has 47 bilinear constraint(s)
Variable types: 57 continuous, 0 integer (0 binary)

Root relaxation: objective -1.743721e+00, 44 iterations, 0.00 seconds

    Nodes    |    Current Node    |     Objective Bounds      |     Work
 Expl Unexpl |  Obj  Depth IntInf | Incumbent    BestBd   Gap | It/Node Time

     0     0   -1.74372    0   38          -   -1.74372      -     -    0s
H    0     0                       0.6147548   -1.74372   384%     -    0s
     0     0   -1.64739    0    1    0.61475   -1.64739   368%     -    0s
H    0     0                      -1.6450460   -1.64739  0.14%     -    0s
     0     0     cutoff    0        -1.64505   -1.64505  0.00%     -    0s

Cutting planes:
  RLT: 25
  BQP: 3

Explored 1 nodes (76 simplex iterations) in 0.01 seconds
Thread count was 32 (of 72 available processors)

Solution count 2: -1.64505 0.614755 
No other solutions better than -1.64505

Optimal solution found (tolerance 1.00e-04)
Best objective -1.645045978473e+00, best bound -1.645045978473e+00, gap 0.0000%

User-callback calls 77, time in user-callback 0.00 sec
Gurobi Optimizer version 9.1.2 build v9.1.2rc0 (linux64)
Thread count: 36 physical cores, 72 logical processors, using up to 32 threads
Optimize a model with 24 rows, 125 columns and 2580 nonzeros
Model fingerprint: 0x6a2ada39
Model has 105 quadratic constraints
Coefficient statistics:
  Matrix range     [6e-06, 5e+01]
  QMatrix range    [1e+00, 1e+00]
  QLMatrix range   [1e+00, 1e+00]
  Objective range  [1e-02, 1e+00]
  Bounds range     [1e+00, 1e+00]
  RHS range        [1e+00, 1e+00]
Presolve removed 10 rows and 0 columns

Continuous model is non-convex -- solving as a MIP.

Presolve removed 10 rows and 0 columns
Presolve time: 0.00s
Presolved: 429 rows, 125 columns, 2142 nonzeros
Presolved model has 105 bilinear constraint(s)
Variable types: 125 continuous, 0 integer (0 binary)

Root relaxation: objective -5.741793e+00, 121 iterations, 0.00 seconds

    Nodes    |    Current Node    |     Objective Bounds      |     Work
 Expl Unexpl |  Obj  Depth IntInf | Incumbent    BestBd   Gap | It/Node Time

     0     0   -5.74179    0   95          -   -5.74179      -     -    0s
H    0     0                      -0.8350032   -5.74179   588%     -    0s
     0     0   -4.85797    0   83   -0.83500   -4.85797   482%     -    0s
H    0     0                      -2.2338488   -4.85797   117%     -    0s
     0     0   -4.85192    0   83   -2.23385   -4.85192   117%     -    0s
     0     0   -4.72506    0   72   -2.23385   -4.72506   112%     -    0s
H    0     0                      -2.9472621   -4.72506  60.3%     -    0s
     0     0   -4.72170    0   72   -2.94726   -4.72170  60.2%     -    0s
     0     0   -4.68906    0   66   -2.94726   -4.68906  59.1%     -    0s
     0     0   -4.67818    0   66   -2.94726   -4.67818  58.7%     -    0s
     0     0   -4.66849    0   83   -2.94726   -4.66849  58.4%     -    0s
     0     0   -4.66255    0   72   -2.94726   -4.66255  58.2%     -    0s
     0     0   -4.66047    0   72   -2.94726   -4.66047  58.1%     -    0s
     0     0   -4.65936    0   82   -2.94726   -4.65936  58.1%     -    0s
     0     0   -4.65773    0   83   -2.94726   -4.65773  58.0%     -    0s
     0     0   -4.65721    0   83   -2.94726   -4.65721  58.0%     -    0s
H    0     0                      -3.6164476   -4.65721  28.8%     -    0s
H    0     0                      -3.7968790   -4.65721  22.7%     -    0s
H    0     0                      -3.8316226   -4.65721  21.5%     -    0s
     0     2   -4.65721    0   83   -3.83162   -4.65721  21.5%     -    0s
*  502   339              16      -3.8450788   -4.31587  12.2%  36.5    0s
*  503   339              16      -3.8450790   -4.31587  12.2%  36.5    0s
*  629   407              25      -3.8814326   -4.31587  11.2%  33.1    0s
*  853   465              26      -3.9252759   -4.31587  10.0%  28.6    0s
*  900   487              30      -3.9805756   -4.31587  8.42%  27.9    0s
* 1285   587              26      -3.9863895   -4.28091  7.39%  24.2    0s
* 1287   587              27      -3.9863939   -4.28091  7.39%  24.2    0s
* 1353   587              27      -3.9886389   -4.28091  7.33%  24.2    0s
* 1578   605              23      -3.9906140   -4.28091  7.27%  22.2    0s
* 1767   605              18      -4.0006352   -4.28091  7.01%  20.7    0s
* 1855   639              23      -4.0014290   -4.08428  2.07%  20.0    0s
* 1880   639              22      -4.0026332   -4.04092  0.96%  19.8    0s
* 1883   639              24      -4.0030347   -4.04092  0.95%  19.8    0s
* 1892   639              22      -4.0065127   -4.04092  0.86%  19.7    0s
* 2160   639              20      -4.0078454   -4.04092  0.83%  18.3    0s
* 2229   639              24      -4.0080602   -4.04092  0.82%  17.9    0s
* 2231   639              24      -4.0080778   -4.04092  0.82%  17.8    0s
* 2252   559              22      -4.0117283   -4.04092  0.73%  17.7    0s
* 2260   559              25      -4.0117931   -4.04092  0.73%  17.7    0s
* 2261   559              24      -4.0117947   -4.04092  0.73%  17.7    0s
* 2294   559              23      -4.0147396   -4.04092  0.65%  17.5    0s
* 2352   559              23      -4.0148413   -4.04092  0.65%  17.2    0s
* 2353   559              23      -4.0148793   -4.04092  0.65%  17.2    0s
* 2393   559              21      -4.0194370   -4.04092  0.53%  17.0    0s
* 2394   559              21      -4.0194565   -4.04092  0.53%  17.0    0s
* 2783    84              14      -4.0194665   -4.02233  0.07%  15.1    0s
* 2790    84              18      -4.0194996   -4.02233  0.07%  15.1    0s
* 2805    84              18      -4.0196616   -4.02122  0.04%  15.0    0s
* 2806    84              18      -4.0196621   -4.02122  0.04%  15.0    0s
* 2848    84              17      -4.0201326   -4.02013  0.00%  14.8    0s
* 2849    84              17      -4.0201341   -4.02013  0.00%  14.8    0s

Cutting planes:
  RLT: 56
  BQP: 9
  PSD: 34

Explored 3197 nodes (42685 simplex iterations) in 0.76 seconds
Thread count was 32 (of 72 available processors)

Solution count 10: -4.02013 -4.02013 -4.01966 ... -4.01474
No other solutions better than -4.02013

Optimal solution found (tolerance 1.00e-04)
Best objective -4.020134080311e+00, best bound -4.020134080311e+00, gap 0.0000%

User-callback calls 6703, time in user-callback 0.00 sec



objective value: -4.0201340803107755
objective bound: -4.0201340803107755
x_opt: [0.0, 0.0, 1.0, 0.0, 1.0, 0.6715546827890347, 1.0, 1.0, 1.0, 0.0, 0.0, 0.19782110161342825, 0.0, 0.0, 0.0, 0.4940541717952642, 0.0, 0.0, 0.005517301964108679, 0.0]
GUROBI solution time: 0.7558550834655762




